(set-info :source |printed by MathSAT|)
(declare-fun ldv_module_refcounter () (_ BitVec 32))

*:
(assert (let ((.def_32190 (= ldv_module_refcounter (_ bv1 32)))).def_32190))
(assert (let ((.def_32195 (bvslt (_ bv1 32) ldv_module_refcounter))).def_32195))

